Solver command line: ['C:\\Program Files\\IBM\\ILOG\\CPLEX_Studio221\\cplex\\bin\\x64_win64\\cplex.exe']


Welcome to IBM(R) ILOG(R) CPLEX(R) Interactive Optimizer 22.1.0.0
  with Simplex, Mixed Integer & Barrier Optimizers
5725-A06 5725-A29 5724-Y48 5724-Y49 5724-Y54 5724-Y55 5655-Y21
Copyright IBM Corp. 1988, 2022.  All Rights Reserved.

Type 'help' for a list of available commands.
Type 'help' followed by a command name for more
information on commands.

CPLEX> Logfile 'cplex.log' closed.
Logfile 'data\50_bus\3.5_trips_per_bus\3_7_2\step1bis.log' open.
CPLEX> New value for mixed integer solutions limit: 1
CPLEX> New value for time limit in seconds: 3601
CPLEX> New value for default parallel thread count: 1
CPLEX> Problem 'C:\Users\Mathis\AppData\Local\Temp\tmpqhopse2u.pyomo.lp' read.
Read time = 0.25 sec. (24.49 ticks)
CPLEX> Problem name         : C:\Users\Mathis\AppData\Local\Temp\tmpqhopse2u.pyomo.lp
Objective sense      : Minimize
Variables            :  100759  [Nneg: 44853,  Binary: 55906]
Objective nonzeros   :   55809
Linear constraints   :  174232  [Less: 167956,  Greater: 1150,  Equal: 5126]
  Nonzeros           :  926533
  RHS nonzeros       :  129324

Variables            : Min LB: 0.000000         Max UB: 1.000000       
Objective nonzeros   : Min   : 1.000000         Max   : 423801.0       
Linear constraints   :
  Nonzeros           : Min   : 0.2192982        Max   : 4723.000       
  RHS nonzeros       : Min   : 1.000000         Max   : 4543.000       
CPLEX> Version identifier: 22.1.0.0 | 2022-03-09 | 1a383f8ce
CPXPARAM_Threads                                 1
CPXPARAM_MIP_Limits_Solutions                    1
CPXPARAM_TimeLimit                               3601
Tried aggregator 4 times.
MIP Presolve eliminated 13223 rows and 2915 columns.
MIP Presolve modified 114 coefficients.
Aggregator did 575 substitutions.
Reduced MIP has 160434 rows, 97269 columns, and 636485 nonzeros.
Reduced MIP has 54501 binaries, 0 generals, 0 SOSs, and 0 indicators.
Presolve time = 0.72 sec. (854.59 ticks)
Probing fixed 181 vars, tightened 797 bounds.
Probing time = 2.45 sec. (1973.21 ticks)
Tried aggregator 2 times.
Detecting symmetries...
MIP Presolve eliminated 3830 rows and 3957 columns.
MIP Presolve modified 96326 coefficients.
Aggregator did 1 substitutions.
Reduced MIP has 156603 rows, 93311 columns, and 623296 nonzeros.
Reduced MIP has 54319 binaries, 566 generals, 0 SOSs, and 0 indicators.
Presolve time = 0.92 sec. (854.24 ticks)
Probing fixed 182 vars, tightened 505 bounds.
Probing time = 1.50 sec. (558.40 ticks)
Clique table members: 328954.
MIP emphasis: balance optimality and feasibility.
MIP search method: dynamic search.
Parallel mode: none, using 1 thread.
Root relaxation solution time = 60.72 sec. (58613.46 ticks)

        Nodes                                         Cuts/
   Node  Left     Objective  IInf  Best Integer    Best Bound    ItCnt     Gap

      0     0   2.37666e+07   636                 2.37666e+07   112340         
      0     0   2.37666e+07   496                   Cuts: 761   116551         
      0     0   2.37666e+07   462                   Cuts: 307   117518         
      0     0   2.37666e+07   472                   Cuts: 283   117873         
      0     0   2.37666e+07   447                   Cuts: 125   118075         
      0     0   2.37666e+07   439                    Cuts: 99   118355         
Detecting symmetries...
      0     0   2.37666e+07   439                    Cuts: 95   118505         
Detecting symmetries...
      0     2   2.37666e+07   439                 2.37666e+07   118505         
Elapsed time = 136.44 sec. (148585.92 ticks, tree = 0.01 MB, solutions = 0)
      2     4   2.37666e+07   574                 2.37666e+07   134608         
      4     6   2.37666e+07   437                 2.37666e+07   134862         
      5     7   2.37666e+07   433                 2.37666e+07   135020         
     10    12   2.37666e+07   423                 2.37666e+07   135831         
     11    13   2.37666e+07   417                 2.37666e+07   136203         
     15    17   2.37666e+07   408                 2.37666e+07   136406         
     20    22   2.37666e+07   381                 2.37666e+07   136817         
     21    23   2.37666e+07   371                 2.37666e+07   136947         
     23    25   2.37666e+07   381                 2.37666e+07   138658         
     32    34   2.37666e+07   352                 2.37666e+07   139401         
Elapsed time = 182.92 sec. (196038.40 ticks, tree = 2.63 MB, solutions = 0)
     43    45   2.37666e+07   328                 2.37666e+07   140437         
     50    52   2.37666e+07   292                 2.37666e+07   141030         
     60    62   2.37666e+07   250                 2.37666e+07   141388         
     70    72   2.37668e+07   214                 2.37666e+07   141727         
     75    77   2.37667e+07   217                 2.37666e+07   142832         
     78    80   2.37670e+07   234                 2.37666e+07   144258         
     80    82   2.37666e+07   202                 2.37666e+07   144355         
     84    86   2.37667e+07   339                 2.37666e+07   166685         
     87    89   2.37666e+07   205                 2.37666e+07   168649         
     89    91   2.37666e+07   206                 2.37666e+07   169177         
Elapsed time = 207.83 sec. (228127.86 ticks, tree = 5.39 MB, solutions = 0)
     90    92   2.37666e+07   216                 2.37666e+07   169639         
     92    94   2.37666e+07   249                 2.37666e+07   171137         
    100   102   2.37666e+07   246                 2.37666e+07   174357         
    112   114   2.37666e+07   181                 2.37666e+07   174876         
    114   116   2.37666e+07   195                 2.37666e+07   176819         
    117   119   2.37666e+07   202                 2.37666e+07   178400         
    120   122   2.37666e+07   184                 2.37666e+07   180835         
    122   124   2.37666e+07   162                 2.37666e+07   181660         
    130   132   2.37666e+07   147                 2.37666e+07   182795         
    133   135   2.37666e+07   124                 2.37666e+07   183934         
Elapsed time = 229.77 sec. (247502.56 ticks, tree = 7.59 MB, solutions = 0)
    140   140   2.37666e+07   137                 2.37666e+07   184679         
    148   148   2.37666e+07   145                 2.37666e+07   185438         
    149   149   2.37666e+07   153                 2.37666e+07   186351         
    153   153   2.37666e+07   146                 2.37666e+07   187238         
    155   155   2.37667e+07   163                 2.37666e+07   188724         
    160   160   2.37666e+07   136                 2.37666e+07   189721         
    169   169   2.37666e+07   126                 2.37666e+07   190596         
    179   179   2.37666e+07   107                 2.37666e+07   191205         
    180   180   2.38012e+07   118                 2.37666e+07   193767         
    185   183   2.37666e+07    79                 2.37666e+07   194993         
Elapsed time = 245.02 sec. (261796.64 ticks, tree = 10.06 MB, solutions = 0)
    189   187   2.37666e+07    88                 2.37666e+07   195967         
    195   193   2.37666e+07    93                 2.37666e+07   196766         
    200   198   2.37666e+07    76                 2.37666e+07   197268         
    208   204   2.37666e+07    59                 2.37666e+07   198377         
    220   216   2.37666e+07    65                 2.37666e+07   198835         
    236   226   2.37666e+07    16                 2.37666e+07   199558         
    243   233   2.37666e+07    12                 2.37666e+07   200837         
*   250   101      integral     0   2.37666e+07   2.37666e+07   201538    0.00%

Clique cuts applied:  104
Implied bound cuts applied:  78
Flow cuts applied:  192
Mixed integer rounding cuts applied:  244
Zero-half cuts applied:  1
Lift and project cuts applied:  15
Gomory fractional cuts applied:  90

Root node processing (before b&c):
  Real time             =  134.42 sec. (146787.67 ticks)
Sequential b&c:
  Real time             =  119.88 sec. (124317.59 ticks)
                          ------------
Total (root+branch&cut) =  254.30 sec. (271105.27 ticks)

Solution pool: 1 solution saved.

MIP - Integer optimal, tolerance (0.0001/1e-06):  Objective =  2.3766586000e+07
Current MIP best bound =  2.3766582000e+07 (gap = 4, 0.00%)
Solution time =  254.30 sec.  Iterations = 201538  Nodes = 251 (100)
Deterministic time = 271105.56 ticks  (1066.10 ticks/sec)

CPLEX> Incumbent solution written to file 'C:\Users\Mathis\AppData\Local\Temp\tmpvw7i8azy.cplex.sol'.
CPLEX> 
